algorithms_of_dicrete_optimalisation/L4-max_flow/hypercube_2.lp.out
Problem:    
Rows:       2
Columns:    4
Non-zeros:  4
Status:     OPTIMAL
Objective:  Max_Flow = 4 (MAXimum)

   No.   Row name   St   Activity     Lower bound   Upper bound    Marginal
------ ------------ -- ------------- ------------- ------------- -------------
     1 Conservation_1
                    NS             0             0             =             1 
     2 Conservation_2
                    NS             0             0             =         < eps

   No. Column name  St   Activity     Lower bound   Upper bound    Marginal
------ ------------ -- ------------- ------------- ------------- -------------
     1 f_0_1        B              3             0             4 
     2 f_0_2        NU             1             0             1             1 
     3 f_1_3        NU             3             0             3             1 
     4 f_2_3        B              1             0             3 

Karush-Kuhn-Tucker optimality conditions:

KKT.PE: max.abs.err = 0.00e+00 on row 0
        max.rel.err = 0.00e+00 on row 0
        High quality

KKT.PB: max.abs.err = 0.00e+00 on row 0
        max.rel.err = 0.00e+00 on row 0
        High quality

KKT.DE: max.abs.err = 0.00e+00 on column 0
        max.rel.err = 0.00e+00 on column 0
        High quality

KKT.DB: max.abs.err = 0.00e+00 on row 0
        max.rel.err = 0.00e+00 on row 0
        High quality

End of output
